c colouring generated by benchmark framework
p edge 95 755
v 1 5
v 2 6
v 3 2
v 4 2
v 5 3
v 6 5
v 7 6
v 8 0
v 9 0
v 10 5
v 11 2
v 12 5
v 13 1
v 14 2
v 15 2
v 16 3
v 17 5
v 18 1
v 19 1
v 20 1
v 21 5
v 22 2
v 23 0
v 24 4
v 25 4
v 26 2
v 27 1
v 28 4
v 29 5
v 30 6
v 31 0
v 32 0
v 33 5
v 34 2
v 35 5
v 36 1
v 37 2
v 38 1
v 39 1
v 40 5
v 41 1
v 42 1
v 43 4
v 44 4
v 45 2
v 46 0
v 47 3
v 48 3
v 49 3
v 50 2
v 51 2
v 52 5
v 53 5
v 54 3
v 55 5
v 56 6
v 57 3
v 58 3
v 59 3
v 60 6
v 61 2
v 62 6
v 63 3
v 64 5
v 65 6
v 66 5
v 67 1
v 68 5
v 69 4
v 70 6
v 71 4
v 72 6
v 73 2
v 74 4
v 75 5
v 76 4
v 77 6
v 78 5
v 79 1
v 80 1
v 81 4
v 82 1
v 83 6
v 84 4
v 85 4
v 86 4
v 87 5
v 88 4
v 89 1
v 90 4
v 91 6
v 92 4
v 93 6
v 94 3
v 95 0
